# Solution for model GasLib-40
# Objective value = 1.3748456009762627e+01
loadshed[innode_1] 0
loadshed[innode_2] 0
loadshed[innode_3] 0
loadshed[innode_4] 0
loadshed[innode_5] 0
loadshed[innode_6] 0
loadshed[innode_7] 0
loadshed[innode_8] 0
loadshed[source_1] -2.4275558864493241e-01
loadshed[source_2] 1.4298617065986885e-01
loadshed[source_3] 1.8673527194519202e-01
loadshed[sink_1] 0
loadshed[sink_2] 0
loadshed[sink_3] 0
loadshed[sink_4] 0
loadshed[sink_5] 0
loadshed[sink_6] 0
loadshed[sink_7] 0
loadshed[sink_8] 0
loadshed[sink_9] 0
loadshed[sink_10] 0
loadshed[sink_11] 0
loadshed[sink_12] 8.4066992161605869e-01
loadshed[sink_13] 0
loadshed[sink_14] 0
loadshed[sink_15] 0
loadshed[sink_16] 0
loadshed[sink_17] 0
loadshed[sink_18] 0
loadshed[sink_19] 0
loadshed[sink_20] 0
loadshed[sink_21] 0
loadshed[sink_22] 0
loadshed[sink_23] 0
loadshed[sink_24] 0
loadshed[sink_25] 0
loadshed[sink_26] 0
loadshed[sink_27] 0
loadshed[sink_28] 0
loadshed[sink_29] 0
flow[source_1,sink_3] 1.9646757621876310e+02
flow[innode_1,sink_16] 1.6354166666666970e+01
flow[innode_6,sink_13] -1.4090080098386650e+01
flow[sink_13,sink_14] -3.0444246765053318e+01
flow[sink_14,sink_10] -4.6798413431719986e+01
flow[sink_25,sink_26] 2.3156404399023944e+02
flow[sink_26,sink_9] 1.2995838399137924e+02
flow[sink_9,sink_18] 1.1360421732471256e+02
flow[sink_26,sink_4] 8.5251493332193547e+01
flow[sink_4,sink_20] 3.2708333333335005e+01
flow[sink_18,sink_6] 97.2500506580459
flow[sink_25,innode_8] -1.6375924288542672e+02
flow[sink_6,sink_7] 4.8187550658045438e+01
flow[sink_6,sink_22] 3.2708333333333641e+01
flow[sink_7,sink_24] 3.5314043990237380e+01
flow[sink_22,sink_1] 1.6354166666666970e+01
flow[sink_24,sink_21] 1.8959877323570709e+01
flow[sink_21,sink_12] 2.6057106569040407e+00
flow[sink_7,sink_5] -3.4806599988583997e+00
flow[sink_5,sink_17] -1.9834826665525270e+01
flow[sink_17,sink_4] -3.6188993332191941e+01
flow[sink_17,sink_8] 0
flow[sink_3,sink_23] 16.3541666666697
flow[sink_8,sink_20] -1.6354166666668334e+01
flow[sink_25,sink_20] 0
flow[sink_25,sink_15] -7.0068887673092675e+01
flow[sink_15,sink_29] -1.0277722100644360e+02
flow[sink_29,sink_28] 1.6354166666667879e+01
flow[sink_29,sink_2] 0
flow[sink_2,sink_15] -1.6354166666684250e+01
flow[sink_29,innode_7] -1.3548555433977836e+02
flow[innode_4,sink_19] 5.0227944573757306e+01
flow[sink_19,innode_3] 46.7797211259842
flow[innode_4,innode_5] 78.3413021912962
flow[sink_27,innode_5] -78.3413021912962
flow[sink_27,sink_19] 6.1987135524629529e+01
flow[sink_10,sink_11] 3.2708333333333641e+01
flow[sink_10,innode_2] -4.9081192305736089e+01
flow[sink_10,innode_3] -46.7797211259842
flow[innode_6,sink_25] 1.4090080098386650e+01
flow[sink_11,innode_1] 1.6354166666666970e+01
flow[sink_19,innode_2] 4.9081192305736089e+01
flow[source_3,innode_4] 1.2856924676505349e+02
flow[source_2,innode_7] 1.3548555433977836e+02
flow[sink_3,innode_8] 1.6375924288542672e+02
pressure[innode_1] 7.6232542950859880e+01
pressure[innode_2] 7.8978387983784884e+01
pressure[innode_3] 7.8874799588580160e+01
pressure[innode_4] 81.01325
pressure[innode_5] 8.0959362721403167e+01
pressure[innode_6] 7.4038586185174310e+01
pressure[innode_7] 81.01325
pressure[innode_8] 8.0356533946035171e+01
pressure[source_1] 81.01325
pressure[source_2] 81.01325
pressure[source_3] 81.01325
pressure[sink_1] 4.1142839165705141e+01
pressure[sink_2] 7.4325095817276434e+01
pressure[sink_3] 8.0356533946035171e+01
pressure[sink_4] 4.6890571053993739e+01
pressure[sink_5] 4.4029995842017662e+01
pressure[sink_6] 4.3243916776092512e+01
pressure[sink_7] 4.2582416567293848e+01
pressure[sink_8] 4.3351280211622409e+01
pressure[sink_9] 4.9951321861723244e+01
pressure[sink_10] 7.6384244258463426e+01
pressure[sink_11] 7.6232542950859880e+01
pressure[sink_12] 1.01325
pressure[sink_13] 7.4116262442085585e+01
pressure[sink_14] 7.4170745014948068e+01
pressure[sink_15] 7.4378488567042879e+01
pressure[sink_16] 75.2108931160422
pressure[sink_17] 4.5507547058354241e+01
pressure[sink_18] 4.5840782680115041e+01
pressure[sink_19] 7.8978387983784884e+01
pressure[sink_20] 44.4909356352107
pressure[sink_21] 1.9405044628262114e+00
pressure[sink_22] 4.2206608308060147e+01
pressure[sink_23] 8.0191815934375384e+01
pressure[sink_24] 2.1504674883578185e+00
pressure[sink_25] 7.4038586185174310e+01
pressure[sink_26] 5.7729666556963352e+01
pressure[sink_27] 8.0309274672376773e+01
pressure[sink_28] 7.7094259911843082e+01
pressure[sink_29] 7.7389542185460257e+01
interdiction[source_1,sink_3] 0
interdiction[innode_1,sink_16] 0
interdiction[innode_6,sink_13] 0
interdiction[sink_13,sink_14] 0
interdiction[sink_14,sink_10] 0
interdiction[sink_25,sink_26] 0
interdiction[sink_26,sink_9] 0
interdiction[sink_9,sink_18] 0
interdiction[sink_26,sink_4] 0
interdiction[sink_4,sink_20] 0
interdiction[sink_18,sink_6] 0
interdiction[sink_25,innode_8] 0
interdiction[sink_6,sink_7] 0
interdiction[sink_6,sink_22] 0
interdiction[sink_7,sink_24] 0
interdiction[sink_22,sink_1] 0
interdiction[sink_24,sink_21] 0
interdiction[sink_21,sink_12] 0
interdiction[sink_7,sink_5] 0
interdiction[sink_5,sink_17] 0
interdiction[sink_17,sink_4] 0
interdiction[sink_17,sink_8] 1
interdiction[sink_3,sink_23] 0
interdiction[sink_8,sink_20] 0
interdiction[sink_25,sink_20] 1
interdiction[sink_25,sink_15] 0
interdiction[sink_15,sink_29] 0
interdiction[sink_29,sink_28] 0
interdiction[sink_29,sink_2] 1
interdiction[sink_2,sink_15] 0
interdiction[sink_29,innode_7] 0
interdiction[innode_4,sink_19] 0
interdiction[sink_19,innode_3] 0
interdiction[innode_4,innode_5] 0
interdiction[sink_27,innode_5] 0
interdiction[sink_27,sink_19] 0
interdiction[sink_10,sink_11] 0
interdiction[sink_10,innode_2] 0
interdiction[sink_10,innode_3] 0
interdiction[innode_6,sink_25] 0
interdiction[sink_11,innode_1] 0
interdiction[sink_19,innode_2] 0
interdiction[source_3,innode_4] 0
interdiction[source_2,innode_7] 0
interdiction[sink_3,innode_8] 0
WCcheckFlow[source_1,sink_3] 39
WCcheckFlow[innode_1,sink_16] 1
WCcheckFlow[innode_6,sink_13] 13
WCcheckFlow[sink_13,sink_14] 12
WCcheckFlow[sink_14,sink_10] 11
WCcheckFlow[sink_25,sink_26] 15
WCcheckFlow[sink_26,sink_9] 11
WCcheckFlow[sink_9,sink_18] 10
WCcheckFlow[sink_26,sink_4] 3
WCcheckFlow[sink_4,sink_20] 2
WCcheckFlow[sink_18,sink_6] 9
WCcheckFlow[sink_25,innode_8] -36
WCcheckFlow[sink_6,sink_7] 6
WCcheckFlow[sink_6,sink_22] 2
WCcheckFlow[sink_7,sink_24] 3
WCcheckFlow[sink_22,sink_1] 1
WCcheckFlow[sink_24,sink_21] 2
WCcheckFlow[sink_21,sink_12] 1
WCcheckFlow[sink_7,sink_5] 2
WCcheckFlow[sink_5,sink_17] 1
WCcheckFlow[sink_17,sink_4] 0
WCcheckFlow[sink_17,sink_8] 0
WCcheckFlow[sink_3,sink_23] 1
WCcheckFlow[sink_8,sink_20] -1
WCcheckFlow[sink_25,sink_20] 0
WCcheckFlow[sink_25,sink_15] 6
WCcheckFlow[sink_15,sink_29] 4
WCcheckFlow[sink_29,sink_28] 1
WCcheckFlow[sink_29,sink_2] 0
WCcheckFlow[sink_2,sink_15] -1
WCcheckFlow[sink_29,innode_7] 2
WCcheckFlow[innode_4,sink_19] -4
WCcheckFlow[sink_19,innode_3] -5
WCcheckFlow[innode_4,innode_5] 2
WCcheckFlow[sink_27,innode_5] -1
WCcheckFlow[sink_27,sink_19] 0
WCcheckFlow[sink_10,sink_11] 3
WCcheckFlow[sink_10,innode_2] 1
WCcheckFlow[sink_10,innode_3] 6
WCcheckFlow[innode_6,sink_25] -14
WCcheckFlow[sink_11,innode_1] 2
WCcheckFlow[sink_19,innode_2] 0
WCcheckFlow[source_3,innode_4] -1
WCcheckFlow[source_2,innode_7] -1
WCcheckFlow[sink_3,innode_8] 37
